COLUMNS

passenger_count
pickup_ID
dropoff_ID
request_time_sec
pickup_district
dropoff_district
LDuals
IDuals
vehicle_ID
pick_position
drop_position

REQUESTS_INFO
1      817       650       30927     290       189       119       119       51        1         3         
3      770       1011      30915     290       84        136       136       122       1         2         
1      816       580       30875     290       189       166       166       123       1         3         
1      875       507       30896     291       189       217.5     217.5     144       1         2         
3      779       738       30909     131       189       187       187       180       1         2         
3      969       47        30907     290       98        169.5     169.5     194       1         3         
1      914       938       30900     291       291       187.5     187.5     212       1         2         
1      582       650       30910     189       189       88        88        219       1         2         
1      894       963       30924     291       50        154.5     154.5     343       1         2         
3      782       701       30906     291       290       155       155       371       1         2         
1      847       552       30913     291       189       163.5     163.5     405       1         2         
1      1000      863       30822     291       290       224.5     224.5     410       1         3         
3      779       738       30909     131       189       187       187       433       1         2         
1      945       862       30911     50        290       165       165       448       1         2         
1      738       777       30904     189       131       113       113       468       1         2         
1      780       928       30908     291       290       156       156       484       1         3         
1      850       716       30893     291       189       164       164       485       1         3         
4      307       235       30913     127       87        126       126       490       1         2         
1      793       532       30925     290       199       136       136       510       1         3         
1      332       116       30914     87        9         121       121       530       1         3         
2      782       701       30906     291       290       155       155       543       1         2         
1      804       484       30906     291       189       143       143       624       1         4         
2      421       529       30926     168       189       105       105       658       1         2         
3      1107      1225      30877     291       192       142       142       677       1         2         
3      549       651       30923     52        189       141       141       681       1         2         
1      837       1015      30881     290       84        160       160       699       1         2         
1      760       894       30916     291       291       129       129       716       1         3         
1      849       697       30918     291       189       237       237       717       1         2         
1      805       728       30921     291       290       99        99        844       1         4         
1      875       805       30908     291       291       205.5     205.5     892       1         2         
1      842       442       30872     290       168       170       170       908       1         3         
1      958       79        30814     291       98        224       224       979       1         4         
1      972       10        30920     290       98        112.5     112.5     998       1         4         
1      861       717       30924     290       189       123       123       1008      1         3         
1      885       292       30909     290       87        158       158       1008      2         4         
3      909       606       30873     290       189       200       200       1013      1         3         
1      894       465       30893     291       199       194       194       1014      1         2         
1      816       749       30920     290       290       121       121       1018      1         3         
1      991       721       30920     290       290       133.5     133.5     1073      1         2         
1      947       886       30902     290       290       177.5     177.5     1078      1         2         
1      847       416       30863     291       100       213.5     213.5     1097      1         2         
1      927       438       30918     290       100       146       146       1101      1         2         
3      980       353       30918     291       119       129.5     129.5     1106      1         3         
1      558       626       30908     189       189       102       102       1135      1         3         
3      816       670       30449     290       280       592       592       1729      1         2         
1      462       603       30905     189       189       120       120       1779      1         2         
1      632       82        30901     189       98        127       127       1855      1         3         
1      1012      1054      30914     84        84        166.5     166.5     1886      1         2         
2      937       760       30880     291       291       185       185       1899      1         2         
1      969       628       30906     290       189       146       146       1975      1         4         
1      836       602       30930     290       189       0         0         0         0         0         
1      980       891       30930     291       291       0         0         0         0         0         
3      376       604       30931     168       189       0         0         0         0         0         
3      376       604       30931     168       189       0         0         0         0         0         
1      926       394       30931     290       100       0         0         0         0         0         
1      865       973       30931     290       84        0         0         0         0         0         
3      309       399       30931     127       168       0         0         0         0         0         
1      532       627       30931     199       189       0         0         0         0         0         
3      309       399       30931     127       168       0         0         0         0         0         
3      310       207       30931     127       286       0         0         0         0         0         
2      1128      733       30932     291       131       0         0         0         0         0         
1      389       134       30932     299       9         0         0         0         0         0         
1      605       98        30932     189       98        0         0         0         0         0         
1      578       507       30933     189       189       0         0         0         0         0         
1      555       606       30933     199       189       0         0         0         0         0         
1      772       48        30933     290       98        0         0         0         0         0         
1      760       835       30933     291       290       0         0         0         0         0         
1      766       35        30933     290       98        0         0         0         0         0         
1      625       625       30933     189       189       0         0         0         0         0         
2      135       135       30933     286       286       0         0         0         0         0         
1      354       722       30934     119       290       0         0         0         0         0         
1      947       675       30934     290       189       0         0         0         0         0         
1      309       248       30934     127       266       0         0         0         0         0         
3      630       507       30934     189       189       0         0         0         0         0         
2      630       507       30934     189       189       0         0         0         0         0         
1      908       727       30935     290       290       0         0         0         0         0         
1      556       189       30935     199       286       0         0         0         0         0         
2      546       696       30935     52        189       0         0         0         0         0         
1      171       269       30935     286       127       0         0         0         0         0         
1      768       905       30935     290       290       0         0         0         0         0         
2      395       556       30936     100       199       0         0         0         0         0         
1      463       697       30936     168       189       0         0         0         0         0         
2      619       330       30936     131       127       0         0         0         0         0         
1      510       596       30936     199       131       0         0         0         0         0         
1      880       578       30936     50        189       0         0         0         0         0         
1      99        173       30937     286       286       0         0         0         0         0         
1      1171      1147      30937     192       291       0         0         0         0         0         
2      460       576       30937     189       189       0         0         0         0         0         
2      772       558       30937     290       189       0         0         0         0         0         
1      768       721       30937     290       290       0         0         0         0         0         
2      484       788       30937     189       290       0         0         0         0         0         
1      259       378       30937     87        168       0         0         0         0         0         
3      527       703       30937     52        290       0         0         0         0         0         
2      619       616       30937     131       131       0         0         0         0         0         
3      619       616       30937     131       131       0         0         0         0         0         
1      662       646       30937     131       280       0         0         0         0         0         
1      173       133       30938     286       9         0         0         0         0         0         
1      479       510       30938     52        199       0         0         0         0         0         
2      304       601       30938     299       189       0         0         0         0         0         
1      850       720       30938     291       290       0         0         0         0         0         
1      509       627       30938     199       189       0         0         0         0         0         
1      333       486       30938     119       199       0         0         0         0         0         
1      630       334       30938     189       119       0         0         0         0         0         
1      632       837       30938     189       290       0         0         0         0         0         
1      504       175       30938     52        266       0         0         0         0         0         
2      476       252       30938     52        206       0         0         0         0         0         
1      143       544       30939     54        52        0         0         0         0         0         
1      397       534       30939     168       199       0         0         0         0         0         
3      914       829       30940     291       50        0         0         0         0         0         
2      914       829       30940     291       50        0         0         0         0         0         
1      839       1209      30940     290       192       0         0         0         0         0         
1      576       63        30940     189       98        0         0         0         0         0         
1      757       600       30940     131       280       0         0         0         0         0         
1      837       648       30941     290       189       0         0         0         0         0         
3      597       488       30941     131       199       0         0         0         0         0         
1      78        199       30941     9         178       0         0         0         0         0         
1      621       738       30941     280       189       0         0         0         0         0         
1      289       577       30941     127       189       0         0         0         0         0         
2      134       451       30942     9         999       0         0         0         0         0         
1      735       530       30942     131       189       0         0         0         0         0         
1      947       693       30942     290       280       0         0         0         0         0         
3      1169      1208      30942     291       192       0         0         0         0         0         
1      676       507       30942     189       189       0         0         0         0         0         
2      1169      1208      30942     291       192       0         0         0         0         0         
1      526       603       30942     52        189       0         0         0         0         0         
2      549       551       30943     52        189       0         0         0         0         0         
1      924       745       30943     290       290       0         0         0         0         0         
1      1283      1209      30943     192       192       0         0         0         0         0         
4      983       861       30943     291       290       0         0         0         0         0         
3      304       408       30943     299       299       0         0         0         0         0         
2      304       408       30943     299       299       0         0         0         0         0         
1      603       597       30943     189       131       0         0         0         0         0         
1      1108      834       30943     291       290       0         0         0         0         0         
1      482       804       30944     189       291       0         0         0         0         0         
1      694       116       30944     189       9         0         0         0         0         0         
1      782       720       30944     291       290       0         0         0         0         0         
1      618       355       30944     131       119       0         0         0         0         0         
3      462       211       30944     189       266       0         0         0         0         0         
3      462       211       30944     189       266       0         0         0         0         0         
1      328       291       30944     299       87        0         0         0         0         0         
2      748       1530      30946     290       296       0         0         0         0         0         
3      748       1530      30946     290       296       0         0         0         0         0         
3      654       11        30946     189       999       0         0         0         0         0         
3      654       11        30946     189       999       0         0         0         0         0         
2      392       673       30946     52        189       0         0         0         0         0         
3      392       673       30946     52        189       0         0         0         0         0         
4      212       333       30946     266       119       0         0         0         0         0         
1      366       458       30946     299       52        0         0         0         0         0         
1      454       325       30946     52        299       0         0         0         0         0         
1      725       721       30946     290       290       0         0         0         0         0         
1      528       836       30946     52        290       0         0         0         0         0         
1      745       696       30946     290       189       0         0         0         0         0         
2      824       938       30947     291       291       0         0         0         0         0         
3      824       938       30947     291       291       0         0         0         0         0         
1      760       534       30947     291       199       0         0         0         0         0         
2      356       462       30947     119       189       0         0         0         0         0         
3      835       408       30947     290       299       0         0         0         0         0         
2      358       117       30947     168       286       0         0         0         0         0         
1      98        137       30947     98        286       0         0         0         0         0         
2      835       408       30947     290       299       0         0         0         0         0         
1      817       604       30948     290       189       0         0         0         0         0         
1      331       195       30948     127       207       0         0         0         0         0         
1      458       600       30948     52        280       0         0         0         0         0         
1      556       662       30948     199       131       0         0         0         0         0         
1      78        84        30948     9         287       0         0         0         0         0         
1      508       662       30949     199       131       0         0         0         0         0         
1      485       812       30949     189       290       0         0         0         0         0         
1      747       623       30949     290       280       0         0         0         0         0         
1      251       503       30949     127       52        0         0         0         0         0         
1      355       332       30950     119       87        0         0         0         0         0         
3      551       479       30950     189       52        0         0         0         0         0         
3      551       479       30950     189       52        0         0         0         0         0         
3      990       651       30950     290       189       0         0         0         0         0         
3      990       651       30950     290       189       0         0         0         0         0         
1      325       189       30950     299       286       0         0         0         0         0         
1      722       768       30950     290       290       0         0         0         0         0         
3      153       101       30951     286       57        0         0         0         0         0         
2      153       101       30951     286       57        0         0         0         0         0         
1      134       662       30951     9         131       0         0         0         0         0         
1      499       618       30952     52        131       0         0         0         0         0         
3      1065      738       30952     291       189       0         0         0         0         0         
1      597       532       30952     131       199       0         0         0         0         0         
2      460       925       30952     189       290       0         0         0         0         0         
1      557       378       30952     189       168       0         0         0         0         0         
1      788       970       30952     290       290       0         0         0         0         0         
3      749       655       30952     290       189       0         0         0         0         0         
2      395       531       30953     100       189       0         0         0         0         0         
1      1068      939       30953     291       291       0         0         0         0         0         
1      715       993       30953     131       84        0         0         0         0         0         
1      309       136       30953     127       286       0         0         0         0         0         
3      395       531       30953     100       189       0         0         0         0         0         
1      906       440       30954     290       168       0         0         0         0         0         
1      971       790       30954     290       290       0         0         0         0         0         
1      509       647       30954     199       280       0         0         0         0         0         
4      939       1264      30954     291       192       0         0         0         0         0         
1      533       598       30954     199       189       0         0         0         0         0         
1      601       677       30954     189       189       0         0         0         0         0         
1      475       604       30954     52        189       0         0         0         0         0         
1      580       527       30954     189       52        0         0         0         0         0         
2      255       47        30955     87        98        0         0         0         0         0         
1      1068      904       30955     291       290       0         0         0         0         0         
1      623       79        30955     280       98        0         0         0         0         0         
1      678       461       30955     290       189       0         0         0         0         0         
3      781       558       30955     291       189       0         0         0         0         0         
1      526       118       30956     52        286       0         0         0         0         0         
1      352       534       30956     119       199       0         0         0         0         0         
1      191       533       30956     266       199       0         0         0         0         0         
1      721       990       30956     290       290       0         0         0         0         0         
1      618       871       30956     131       291       0         0         0         0         0         
1      466       779       30956     199       131       0         0         0         0         0         
1      522       669       30956     52        280       0         0         0         0         0         
1      510       652       30956     199       189       0         0         0         0         0         
1      191       213       30956     266       266       0         0         0         0         0         
2      454       371       30957     52        52        0         0         0         0         0         
3      454       371       30957     52        52        0         0         0         0         0         
3      842       727       30957     290       290       0         0         0         0         0         
2      842       727       30957     290       290       0         0         0         0         0         
2      927       723       30957     290       290       0         0         0         0         0         
1      733       572       30957     131       131       0         0         0         0         0         
1      532       232       30957     199       266       0         0         0         0         0         
1      1218      1088      30958     84        291       0         0         0         0         0         
3      749       860       30958     290       290       0         0         0         0         0         
1      410       96        30958     52        9         0         0         0         0         0         
1      861       649       30958     290       189       0         0         0         0         0         
1      653       737       30958     189       189       0         0         0         0         0         
2      662       828       30958     131       291       0         0         0         0         0         
3      698       1026      30959     189       291       0         0         0         0         0         
3      904       721       30959     290       290       0         0         0         0         0         
3      627       698       30959     189       189       0         0         0         0         0         
3      627       698       30959     189       189       0         0         0         0         0         
2      698       1026      30959     189       291       0         0         0         0         0         
2      904       721       30959     290       290       0         0         0         0         0         
2      304       415       30959     299       100       0         0         0         0         0         
2      267       650       30959     266       189       0         0         0         0         0         
